c A SAT instance generated from a 2-CNF formula that had 26 clauses and 10 variables
p cnf 10 26
2 3 0
-5 10 0
-8 -9 0
7 -6 0
10 -9 0
-9 3 0
-5 7 0
8 -3 0
9 8 0
-10 9 0
4 8 0
10 5 0
-10 -8 0
6 -10 0
-3 -6 0
7 3 0
9 -8 0
8 6 0
-5 -6 0
1 -4 0
3 1 0
1 3 0
5 -1 0
-7 -8 0
10 -8 0
10 5 0
